20 100
1 2 3 4 5 6 7 8 9 10
1 1 1 1 1 1 1 1 1 1
1 1 1 1 1 1 1 1 1 1
1 1 1 1 1 1 1 1 1 1
1 1 1 1 1 1 1 1 1 1
1 1 1 1 1 1 1 1 1 1
1 1 1 1 1 1 1 1 1 1
1 1 1 1 1 1 1 1 1 1
1 1 1 1 1 1 1 1 1 1
1 1 1 1 1 1 1 1 1 1
6
1 5 10 15 20 25
5
2 6 11 21 31
5
3 7 12 22 32
5
4 8 13 23 33
5
9 14 24 34 44
6
16 26 36 46 56 66
5
17 27 37 47 57
5
18 28 38 48 58
5
19 29 39 49 59
5
30 40 50 60 70
6
35 45 55 65 75 85
5
36 46 56 66 76
5
37 47 57 67 77
5
38 48 58 68 78
5
39 49 59 69 79
6
60 61 62 63 64 65
5
66 67 68 69 70
20
71 72 73 74 75 86 87 88 89 90 91 92 93 94 95 96 97 98 99 100
9
76 77 78 79 80 51 52 53 54
8
81 82 83 84 85 43 42 41